VertexID	Color
48	1
72	1
1	1
2	1
3	1
10	1
12	1
13	1
21	1
23	1
24	1
26	1
30	1
31	1
32	1
36	1
41	1
45	1
49	1
51	1
52	1
53	1
56	1
61	1
62	1
64	1
65	1
67	1
70	1
71	1
74	1
78	1
80	1
57	2
9	2
5	2
8	2
11	2
14	2
25	2
29	2
43	2
46	2
60	2
28	3
15	3
4	3
16	3
17	3
18	3
27	3
42	3
54	3
75	3
37	4
34	4
33	4
76	4
35	5
66	5
20	5
40	5
59	5
55	6
7	6
22	6
63	6
77	6
58	7
19	7
39	7
69	7
44	8
68	8
6	8
47	8
73	8
79	9
38	10
50	10
